unsat
(define-fun f ((x (_ BitVec 64))) (_ BitVec 64) (im (bvand #b0000000000000000000000000000000000000000000000000000000000000001 x) (im (bvand #b0000000000000000000000000000000000000000000000000000000000000001 (arba (smol x))) x (im (bvand #b0000000000000000000000000000000000000000000000000000000000000001 (ehad x)) x (im (bvand x #b0000000000000000000000000000000000000000000000000000000000000101) #b0000000000000000000000000000000000000000000000000000000000000001 x))) (bvnot #b0000000000000000000000000000000000000000000000000000000000000001)))
0.18user 0.00system 0:00.19elapsed 99%CPU (0avgtext+0avgdata 32296maxresident)k
0inputs+8outputs (0major+2719minor)pagefaults 0swaps
